(set-logic QF_S)
(set-option :strings-exp true)
(set-option :produce-models true)
(declare-fun sigmaStar_0 () String)
(declare-fun literal_1 () String)
(assert (= literal_1 "\x66\x6f\x72\x6d\x61\x63\x74\x69\x6f\x6e"))
(assert (str.in.re literal_1 (re.++ (re.* re.allchar) (re.++ (str.to.re "\x2f\x65\x76\x69\x6c") (re.* re.allchar)))))
(check-sat)
(get-model)
